12 3
10 6 8
8 5 6
12 7 10
10 6 8
8 5 7
12 7 10
12 10 11
9 5 7
10 6 8
8 5 7
15 9 12
13 7 10
10 14 12
6 8 7
11 16 13
6 12 8
10 16 12
7 12 10
10 13 10
4 10 8
2 4 3
7 14 11
8 16 12
3 6 5
2 3 4 5 10 1 2 4 10 1 5 2
36 33 31 38 34 38 33 25 38 39 30 20
